NAME : local_8
TYPE : ATSP
DIMENSION : 32
EDGE_WEIGHT_TYPE : EXPLICIT
EDGE_WEIGHT_FORMAT : FULL_MATRIX
EDGE_WEIGHT_SECTION
0 10000000 945 10000000 817 733 10000000 10000000 685 10000000 606 344 1124 718 10000000 10000000 10000000 998 10000000 917 10000000 631 219 955 10000000 1226 10000000 928 593 10000000 10000000 10000000 
0 0 10000000 10000000 10000000 10000000 551 963 10000000 942 10000000 10000000 10000000 10000000 10000000 793 326 10000000 10000000 10000000 10000000 10000000 10000000 10000000 10000000 10000000 10000000 10000000 10000000 837 811 633 
0 10000000 0 587 129 575 10000000 10000000 805 10000000 10000000 938 10000000 10000000 10000000 10000000 10000000 738 10000000 833 10000000 715 739 753 10000000 10000000 10000000 10000000 10000000 724 10000000 10000000 
0 10000000 587 0 586 10000000 1092 10000000 571 10000000 833 10000000 10000000 10000000 10000000 10000000 1051 291 10000000 454 10000000 10000000 984 10000000 10000000 10000000 10000000 10000000 10000000 262 10000000 10000000 
0 10000000 129 586 0 512 10000000 10000000 708 10000000 907 825 10000000 10000000 10000000 10000000 10000000 691 10000000 764 10000000 632 613 720 10000000 10000000 10000000 10000000 10000000 730 10000000 10000000 
0 10000000 575 10000000 512 0 10000000 1066 10000000 10000000 10000000 534 10000000 596 10000000 10000000 10000000 10000000 571 10000000 669 172 533 268 10000000 10000000 10000000 634 10000000 10000000 10000000 10000000 
0 551 10000000 1087 10000000 10000000 0 675 1061 393 10000000 10000000 767 10000000 917 870 225 840 10000000 808 10000000 10000000 10000000 10000000 521 10000000 10000000 10000000 10000000 825 665 762 
0 963 10000000 10000000 10000000 1024 675 0 10000000 650 10000000 10000000 924 10000000 665 559 762 10000000 655 10000000 540 957 10000000 888 551 10000000 699 810 10000000 10000000 237 592 
0 10000000 805 571 708 10000000 1089 10000000 0 1053 270 952 995 10000000 10000000 10000000 10000000 383 10000000 295 10000000 10000000 656 10000000 10000000 10000000 10000000 10000000 447 692 10000000 10000000 
0 942 10000000 10000000 10000000 10000000 393 650 1016 0 960 10000000 393 10000000 583 10000000 617 953 10000000 854 10000000 10000000 10000000 10000000 187 772 851 10000000 984 10000000 766 10000000 
0 10000000 10000000 833 907 10000000 10000000 10000000 270 976 0 916 768 10000000 10000000 10000000 10000000 606 10000000 466 10000000 10000000 660 10000000 10000000 801 10000000 10000000 179 919 10000000 10000000 
0 10000000 938 10000000 825 534 10000000 10000000 952 10000000 916 0 10000000 389 10000000 10000000 10000000 10000000 894 10000000 890 386 304 712 10000000 10000000 10000000 630 951 10000000 10000000 10000000 
0 10000000 10000000 10000000 10000000 10000000 767 924 966 393 768 10000000 0 10000000 547 10000000 993 10000000 10000000 912 10000000 10000000 1200 10000000 407 380 814 10000000 732 10000000 10000000 10000000 
0 10000000 10000000 10000000 10000000 596 10000000 10000000 10000000 10000000 10000000 389 10000000 0 10000000 10000000 10000000 10000000 688 10000000 659 435 668 621 10000000 10000000 977 304 10000000 10000000 10000000 10000000 
0 10000000 10000000 10000000 10000000 10000000 917 665 10000000 583 10000000 10000000 547 10000000 0 10000000 10000000 10000000 10000000 10000000 996 10000000 10000000 10000000 405 774 333 10000000 10000000 10000000 877 10000000 
0 793 10000000 10000000 10000000 10000000 870 559 10000000 10000000 10000000 10000000 10000000 10000000 10000000 0 799 10000000 682 10000000 699 10000000 10000000 861 10000000 10000000 10000000 10000000 10000000 10000000 349 165 
0 326 10000000 1034 10000000 10000000 225 762 10000000 617 10000000 10000000 993 10000000 10000000 799 0 887 10000000 896 10000000 10000000 10000000 10000000 730 10000000 10000000 10000000 10000000 787 680 663 
0 10000000 738 291 691 10000000 840 10000000 383 953 606 10000000 10000000 10000000 10000000 10000000 887 0 10000000 168 10000000 10000000 907 10000000 10000000 10000000 10000000 10000000 781 319 10000000 10000000 
0 10000000 10000000 10000000 10000000 571 10000000 655 10000000 10000000 10000000 894 10000000 688 10000000 682 10000000 10000000 0 10000000 190 575 10000000 324 10000000 10000000 10000000 457 10000000 10000000 694 795 
0 10000000 833 454 764 10000000 808 10000000 295 854 466 10000000 912 10000000 10000000 10000000 896 168 10000000 0 10000000 10000000 858 10000000 10000000 10000000 10000000 10000000 633 468 10000000 10000000 
0 10000000 10000000 10000000 10000000 669 10000000 540 10000000 10000000 10000000 890 10000000 659 996 699 10000000 10000000 190 10000000 0 632 10000000 465 1025 10000000 860 384 10000000 10000000 628 813 
0 10000000 715 10000000 632 172 10000000 989 10000000 10000000 10000000 386 10000000 435 10000000 10000000 10000000 10000000 575 10000000 632 0 459 333 10000000 10000000 10000000 512 10000000 10000000 10000000 10000000 
0 10000000 739 984 613 533 10000000 10000000 656 10000000 660 304 1449 668 10000000 10000000 10000000 907 10000000 858 10000000 459 0 772 10000000 10000000 10000000 851 702 10000000 10000000 10000000 
0 10000000 753 10000000 720 268 10000000 912 10000000 10000000 10000000 712 10000000 621 10000000 861 10000000 10000000 324 10000000 465 333 772 0 10000000 10000000 10000000 536 10000000 10000000 876 1030 
0 10000000 10000000 10000000 10000000 10000000 521 551 10000000 187 10000000 10000000 407 10000000 405 10000000 730 10000000 10000000 10000000 1060 10000000 10000000 10000000 0 775 674 10000000 10000000 10000000 706 999 
0 10000000 10000000 10000000 10000000 10000000 10000000 10000000 10000000 772 792 10000000 380 10000000 774 10000000 10000000 10000000 10000000 10000000 10000000 10000000 10000000 10000000 775 0 978 10000000 655 10000000 10000000 10000000 
0 10000000 10000000 10000000 10000000 10000000 10000000 699 10000000 851 10000000 10000000 814 977 333 10000000 10000000 10000000 10000000 10000000 860 10000000 10000000 10000000 674 978 0 837 10000000 10000000 927 10000000 
0 10000000 10000000 10000000 10000000 634 10000000 810 10000000 10000000 10000000 630 10000000 304 10000000 10000000 10000000 10000000 457 10000000 384 512 851 536 10000000 10000000 837 0 10000000 10000000 961 10000000 
0 10000000 10000000 10000000 10000000 10000000 10000000 10000000 447 1016 179 938 741 10000000 10000000 10000000 10000000 781 10000000 633 10000000 10000000 702 10000000 10000000 658 10000000 10000000 0 10000000 10000000 10000000 
0 837 724 262 730 10000000 825 10000000 692 10000000 919 10000000 10000000 10000000 10000000 10000000 787 319 10000000 468 10000000 10000000 10000000 10000000 10000000 10000000 10000000 10000000 10000000 0 10000000 10000000 
0 811 10000000 10000000 10000000 10000000 665 237 10000000 766 10000000 10000000 10000000 10000000 877 349 680 10000000 694 10000000 628 10000000 10000000 894 706 10000000 927 961 10000000 10000000 0 365 
0 10000000 10000000 10000000 10000000 10000000 10000000 10000000 10000000 10000000 10000000 10000000 10000000 10000000 10000000 10000000 10000000 10000000 10000000 10000000 10000000 10000000 10000000 10000000 10000000 10000000 10000000 10000000 10000000 10000000 10000000 0 
EOF